p cnf 24 66
1 2 0
-1 3 0
4 5 6 7 8 1 20 0
4 5 6 7 8 -1 9 0
4 5 6 7 -8 1 17 0
4 5 6 7 -8 -1 9 0
4 5 6 -7 8 1 20 0
4 5 6 -7 8 -1 9 0
4 5 6 -7 -8 1 17 0
4 5 6 -7 -8 -1 9 0
4 5 -6 7 8 1 17 0
4 5 -6 7 8 -1 9 0
4 5 -6 7 -8 1 20 0
4 5 -6 7 -8 -1 9 0
4 5 -6 -7 8 1 17 0
4 5 -6 -7 8 -1 9 0
4 5 -6 -7 -8 1 20 0
4 5 -6 -7 -8 -1 9 0
4 -5 6 7 8 1 21 0
4 -5 6 7 8 -1 9 0
4 -5 6 7 -8 1 24 0
4 -5 6 7 -8 -1 9 0
4 -5 6 -7 8 1 10 0
4 -5 6 -7 8 -1 9 0
4 -5 6 -7 -8 1 24 0
4 -5 6 -7 -8 -1 9 0
4 -5 -6 7 8 1 11 0
4 -5 -6 7 8 -1 9 0
4 -5 -6 7 -8 1 24 0
4 -5 -6 7 -8 -1 9 0
4 -5 -6 -7 8 1 21 0
4 -5 -6 -7 8 -1 9 0
4 -5 -6 -7 -8 1 12 0
4 -5 -6 -7 -8 -1 9 0
-4 5 6 7 8 1 21 0
-4 5 6 7 8 -1 9 0
-4 5 6 7 -8 1 10 0
-4 5 6 7 -8 -1 9 0
-4 5 6 -7 8 1 10 0
-4 5 6 -7 8 -1 23 0
-4 5 6 -7 -8 1 10 0
-4 5 6 -7 -8 -1 22 0
-4 5 -6 7 8 1 10 0
-4 5 -6 7 8 -1 13 0
-4 5 -6 7 -8 1 24 0
-4 5 -6 7 -8 -1 14 0
-4 5 -6 -7 8 1 24 0
-4 5 -6 -7 8 -1 15 0
-4 5 -6 -7 -8 1 24 0
-4 5 -6 -7 -8 -1 16 0
-4 -5 6 7 8 1 18 0
-4 -5 6 7 8 -1 19 0
-4 -5 6 7 -8 1 20 0
-4 -5 6 7 -8 -1 9 0
-4 -5 6 -7 8 1 17 0
-4 -5 6 -7 8 -1 9 0
-4 -5 6 -7 -8 1 17 0
-4 -5 6 -7 -8 -1 9 0
-4 -5 -6 7 8 1 20 0
-4 -5 -6 7 8 -1 9 0
-4 -5 -6 7 -8 1 20 0
-4 -5 -6 7 -8 -1 9 0
-4 -5 -6 -7 8 1 17 0
-4 -5 -6 -7 8 -1 9 0
-4 -5 -6 -7 -8 1 12 0
-4 -5 -6 -7 -8 -1 9 0
